NAME          
ROWS
 N  OBJ
 L  c3
 L  c4
 L  c5
 L  c6
 L  c7
 G  c1
 G  c2
COLUMNS
    ss[1]     c1        1
    ss[1]     OBJ       1000
    ss[2]     c2        1
    ss[2]     OBJ       1000
    s[1]      c3        1
    s[1]      OBJ       -1000
    s[2]      c4        1
    s[2]      OBJ       -1000
    s[3]      c5        1
    s[3]      OBJ       -1000
    s[4]      c6        1
    s[4]      OBJ       -1000
    s[5]      c7        1
    s[5]      OBJ       -1000
    MARKER    'MARKER'                 'INTORG'
    x[1]      c3        356
    x[1]      c4        98
    x[1]      c5        581
    x[1]      c6        873
    x[1]      c7        70
    x[1]      c1        556
    x[1]      c2        413
    x[1]      OBJ       52
    x[2]      c3        787
    x[2]      c4        162
    x[2]      c5        89
    x[2]      c6        526
    x[2]      c7        357
    x[2]      c1        125
    x[2]      c2        794
    x[2]      OBJ       -370
    x[3]      c3        241
    x[3]      c4        286
    x[3]      c5        968
    x[3]      c6        987
    x[3]      c7        888
    x[3]      c1        736
    x[3]      c2        494
    x[3]      OBJ       -539
    x[4]      c3        469
    x[4]      c4        976
    x[4]      c5        879
    x[4]      c6        972
    x[4]      c7        458
    x[4]      c1        557
    x[4]      c2        821
    x[4]      OBJ       -200
    x[5]      c3        507
    x[5]      c4        819
    x[5]      c5        409
    x[5]      c6        444
    x[5]      c7        373
    x[5]      c1        301
    x[5]      c2        348
    x[5]      OBJ       -194
    x[6]      c3        6
    x[6]      c4        245
    x[6]      c5        474
    x[6]      c6        493
    x[6]      c7        124
    x[6]      c1        6
    x[6]      c2        961
    x[6]      OBJ       192
    x[7]      c3        152
    x[7]      c4        467
    x[7]      c5        877
    x[7]      c6        293
    x[7]      c7        344
    x[7]      c1        111
    x[7]      c2        63
    x[7]      OBJ       -342
    x[8]      c3        603
    x[8]      c4        978
    x[8]      c5        569
    x[8]      c6        520
    x[8]      c7        901
    x[8]      c1        16
    x[8]      c2        962
    x[8]      OBJ       -616
    x[9]      c3        384
    x[9]      c4        31
    x[9]      c5        320
    x[9]      c6        521
    x[9]      c7        357
    x[9]      c1        704
    x[9]      c2        799
    x[9]      OBJ       159
    x[10]     c3        715
    x[10]     c4        619
    x[10]     c5        853
    x[10]     c6        605
    x[10]     c7        972
    x[10]     c1        952
    x[10]     c2        242
    x[10]     OBJ       -427
    x[11]     c3        832
    x[11]     c4        56
    x[11]     c5        241
    x[11]     c6        607
    x[11]     c7        610
    x[11]     c1        408
    x[11]     c2        352
    x[11]     OBJ       -371
    x[12]     c3        370
    x[12]     c4        453
    x[12]     c5        577
    x[12]     c6        184
    x[12]     c7        167
    x[12]     c1        492
    x[12]     c2        337
    x[12]     OBJ       -342
    x[13]     c3        725
    x[13]     c4        106
    x[13]     c5        970
    x[13]     c6        933
    x[13]     c7        183
    x[13]     c1        163
    x[13]     c2        111
    x[13]     OBJ       -793
    x[14]     c3        95
    x[14]     c4        467
    x[14]     c5        889
    x[14]     c6        485
    x[14]     c7        620
    x[14]     c1        938
    x[14]     c2        559
    x[14]     OBJ       31
    x[15]     c3        75
    x[15]     c4        948
    x[15]     c5        652
    x[15]     c6        609
    x[15]     c7        592
    x[15]     c1        315
    x[15]     c2        889
    x[15]     OBJ       -380
    x[16]     c3        433
    x[16]     c4        676
    x[16]     c5        753
    x[16]     c6        401
    x[16]     c7        579
    x[16]     c1        949
    x[16]     c2        595
    x[16]     OBJ       -108
    x[17]     c3        914
    x[17]     c4        399
    x[17]     c5        497
    x[17]     c6        416
    x[17]     c7        459
    x[17]     c1        670
    x[17]     c2        914
    x[17]     OBJ       139
    x[18]     c3        945
    x[18]     c4        351
    x[18]     c5        812
    x[18]     c6        107
    x[18]     c7        815
    x[18]     c1        1000
    x[18]     c2        576
    x[18]     OBJ       -253
    x[19]     c3        71
    x[19]     c4        24
    x[19]     c5        661
    x[19]     c6        289
    x[19]     c7        430
    x[19]     c1        457
    x[19]     c2        312
    x[19]     OBJ       -249
    x[20]     c3        91
    x[20]     c4        607
    x[20]     c5        219
    x[20]     c6        747
    x[20]     c7        613
    x[20]     c1        816
    x[20]     c2        323
    x[20]     OBJ       -111
    x[21]     c3        810
    x[21]     c4        528
    x[21]     c5        355
    x[21]     c6        71
    x[21]     c7        971
    x[21]     c1        357
    x[21]     c2        153
    x[21]     OBJ       -748
    x[22]     c3        95
    x[22]     c4        928
    x[22]     c5        34
    x[22]     c6        246
    x[22]     c7        734
    x[22]     c1        495
    x[22]     c2        888
    x[22]     OBJ       -154
    x[23]     c3        162
    x[23]     c4        86
    x[23]     c5        863
    x[23]     c6        723
    x[23]     c7        456
    x[23]     c1        916
    x[23]     c2        287
    x[23]     OBJ       -147
    x[24]     c3        52
    x[24]     c4        143
    x[24]     c5        720
    x[24]     c6        362
    x[24]     c7        389
    x[24]     c1        852
    x[24]     c2        627
    x[24]     OBJ       -45
    x[25]     c3        140
    x[25]     c4        201
    x[25]     c5        508
    x[25]     c6        337
    x[25]     c7        652
    x[25]     c1        614
    x[25]     c2        888
    x[25]     OBJ       145
    x[26]     c3        386
    x[26]     c4        89
    x[26]     c5        152
    x[26]     c6        174
    x[26]     c7        620
    x[26]     c1        161
    x[26]     c2        634
    x[26]     OBJ       -95
    x[27]     c3        645
    x[27]     c4        482
    x[27]     c5        317
    x[27]     c6        401
    x[27]     c7        655
    x[27]     c1        60
    x[27]     c2        424
    x[27]     OBJ       -328
    x[28]     c3        75
    x[28]     c4        336
    x[28]     c5        254
    x[28]     c6        691
    x[28]     c7        383
    x[28]     c1        382
    x[28]     c2        365
    x[28]     OBJ       -82
    x[29]     c3        11
    x[29]     c4        595
    x[29]     c5        73
    x[29]     c6        836
    x[29]     c7        127
    x[29]     c1        373
    x[29]     c2        374
    x[29]     OBJ       26
    x[30]     c3        992
    x[30]     c4        653
    x[30]     c5        915
    x[30]     c6        371
    x[30]     c7        212
    x[30]     c1        570
    x[30]     c2        85
    x[30]     OBJ       -525
    x[31]     c3        440
    x[31]     c4        441
    x[31]     c5        837
    x[31]     c6        609
    x[31]     c7        570
    x[31]     c1        182
    x[31]     c2        650
    x[31]     OBJ       -626
    x[32]     c3        508
    x[32]     c4        785
    x[32]     c5        315
    x[32]     c6        263
    x[32]     c7        247
    x[32]     c1        934
    x[32]     c2        265
    x[32]     OBJ       -135
    x[33]     c3        252
    x[33]     c4        777
    x[33]     c5        604
    x[33]     c6        142
    x[33]     c7        52
    x[33]     c1        129
    x[33]     c2        711
    x[33]     OBJ       39
    x[34]     c3        589
    x[34]     c4        767
    x[34]     c5        484
    x[34]     c6        544
    x[34]     c7        691
    x[34]     c1        542
    x[34]     c2        204
    x[34]     OBJ       -500
    x[35]     c3        769
    x[35]     c4        828
    x[35]     c5        797
    x[35]     c6        489
    x[35]     c7        894
    x[35]     c1        767
    x[35]     c2        816
    x[35]     OBJ       6
    x[36]     c3        906
    x[36]     c4        748
    x[36]     c5        956
    x[36]     c6        777
    x[36]     c7        13
    x[36]     c1        964
    x[36]     c2        595
    x[36]     OBJ       -254
    x[37]     c3        603
    x[37]     c4        628
    x[37]     c5        315
    x[37]     c6        163
    x[37]     c7        593
    x[37]     c1        896
    x[37]     c2        111
    x[37]     OBJ       7
    x[38]     c3        569
    x[38]     c4        637
    x[38]     c5        952
    x[38]     c6        886
    x[38]     c7        653
    x[38]     c1        350
    x[38]     c2        707
    x[38]     OBJ       -573
    x[39]     c3        636
    x[39]     c4        171
    x[39]     c5        681
    x[39]     c6        323
    x[39]     c7        782
    x[39]     c1        178
    x[39]     c2        774
    x[39]     OBJ       -504
    x[40]     c3        15
    x[40]     c4        510
    x[40]     c5        988
    x[40]     c6        359
    x[40]     c7        396
    x[40]     c1        557
    x[40]     c2        138
    x[40]     OBJ       -507
    x[41]     c3        516
    x[41]     c4        455
    x[41]     c5        799
    x[41]     c6        385
    x[41]     c7        510
    x[41]     c1        975
    x[41]     c2        687
    x[41]     OBJ       -179
    x[42]     c3        696
    x[42]     c4        244
    x[42]     c5        80
    x[42]     c6        632
    x[42]     c7        584
    x[42]     c1        70
    x[42]     c2        131
    x[42]     OBJ       -744
    x[43]     c3        122
    x[43]     c4        521
    x[43]     c5        559
    x[43]     c6        600
    x[43]     c7        705
    x[43]     c1        226
    x[43]     c2        279
    x[43]     OBJ       -286
    x[44]     c3        196
    x[44]     c4        589
    x[44]     c5        677
    x[44]     c6        515
    x[44]     c7        914
    x[44]     c1        356
    x[44]     c2        775
    x[44]     OBJ       -80
    x[45]     c3        618
    x[45]     c4        130
    x[45]     c5        125
    x[45]     c6        372
    x[45]     c7        89
    x[45]     c1        404
    x[45]     c2        191
    x[45]     OBJ       -117
    x[46]     c3        956
    x[46]     c4        626
    x[46]     c5        510
    x[46]     c6        770
    x[46]     c7        114
    x[46]     c1        79
    x[46]     c2        217
    x[46]     OBJ       -596
    x[47]     c3        977
    x[47]     c4        315
    x[47]     c5        665
    x[47]     c6        966
    x[47]     c7        991
    x[47]     c1        833
    x[47]     c2        181
    x[47]     OBJ       -591
    x[48]     c3        831
    x[48]     c4        909
    x[48]     c5        191
    x[48]     c6        614
    x[48]     c7        263
    x[48]     c1        616
    x[48]     c2        750
    x[48]     OBJ       38
    x[49]     c3        418
    x[49]     c4        567
    x[49]     c5        63
    x[49]     c6        243
    x[49]     c7        791
    x[49]     c1        575
    x[49]     c2        890
    x[49]     OBJ       53
    x[50]     c3        683
    x[50]     c4        62
    x[50]     c5        946
    x[50]     c6        41
    x[50]     c7        467
    x[50]     c1        987
    x[50]     c2        776
    x[50]     OBJ       38
    x[51]     c3        510
    x[51]     c4        936
    x[51]     c5        432
    x[51]     c6        41
    x[51]     c7        465
    x[51]     c1        340
    x[51]     c2        484
    x[51]     OBJ       -382
    x[52]     c3        151
    x[52]     c4        401
    x[52]     c5        75
    x[52]     c6        1
    x[52]     c7        429
    x[52]     c1        794
    x[52]     c2        655
    x[52]     OBJ       301
    x[53]     c3        245
    x[53]     c4        445
    x[53]     c5        632
    x[53]     c6        887
    x[53]     c7        89
    x[53]     c1        321
    x[53]     c2        662
    x[53]     OBJ       -71
    x[54]     c3        96
    x[54]     c4        103
    x[54]     c5        887
    x[54]     c6        849
    x[54]     c7        834
    x[54]     c1        337
    x[54]     c2        662
    x[54]     OBJ       -352
    x[55]     c3        197
    x[55]     c4        920
    x[55]     c5        456
    x[55]     c6        707
    x[55]     c7        658
    x[55]     c1        580
    x[55]     c2        995
    x[55]     OBJ       144
    x[56]     c3        657
    x[56]     c4        409
    x[56]     c5        71
    x[56]     c6        763
    x[56]     c7        268
    x[56]     c1        920
    x[56]     c2        248
    x[56]     OBJ       -75
    x[57]     c3        88
    x[57]     c4        296
    x[57]     c5        433
    x[57]     c6        495
    x[57]     c7        42
    x[57]     c1        425
    x[57]     c2        718
    x[57]     OBJ       -88
    x[58]     c3        346
    x[58]     c4        511
    x[58]     c5        18
    x[58]     c6        376
    x[58]     c7        73
    x[58]     c1        170
    x[58]     c2        321
    x[58]     OBJ       -241
    x[59]     c3        453
    x[59]     c4        820
    x[59]     c5        864
    x[59]     c6        275
    x[59]     c7        450
    x[59]     c1        955
    x[59]     c2        533
    x[59]     OBJ       104
    x[60]     c3        416
    x[60]     c4        984
    x[60]     c5        191
    x[60]     c6        49
    x[60]     c7        730
    x[60]     c1        581
    x[60]     c2        391
    x[60]     OBJ       -143
    x[61]     c3        595
    x[61]     c4        405
    x[61]     c5        22
    x[61]     c6        629
    x[61]     c7        170
    x[61]     c1        739
    x[61]     c2        81
    x[61]     OBJ       -442
    x[62]     c3        566
    x[62]     c4        182
    x[62]     c5        659
    x[62]     c6        749
    x[62]     c7        488
    x[62]     c1        622
    x[62]     c2        253
    x[62]     OBJ       -232
    x[63]     c3        308
    x[63]     c4        897
    x[63]     c5        702
    x[63]     c6        550
    x[63]     c7        532
    x[63]     c1        473
    x[63]     c2        879
    x[63]     OBJ       -351
    x[64]     c3        398
    x[64]     c4        803
    x[64]     c5        440
    x[64]     c6        505
    x[64]     c7        21
    x[64]     c1        789
    x[64]     c2        540
    x[64]     OBJ       -137
    x[65]     c3        715
    x[65]     c4        110
    x[65]     c5        784
    x[65]     c6        94
    x[65]     c7        244
    x[65]     c1        946
    x[65]     c2        959
    x[65]     OBJ       268
    x[66]     c3        429
    x[66]     c4        661
    x[66]     c5        579
    x[66]     c6        104
    x[66]     c7        547
    x[66]     c1        499
    x[66]     c2        118
    x[66]     OBJ       -540
    x[67]     c3        741
    x[67]     c4        724
    x[67]     c5        5
    x[67]     c6        721
    x[67]     c7        660
    x[67]     c1        666
    x[67]     c2        989
    x[67]     OBJ       -112
    x[68]     c3        141
    x[68]     c4        369
    x[68]     c5        628
    x[68]     c6        765
    x[68]     c7        377
    x[68]     c1        546
    x[68]     c2        781
    x[68]     OBJ       -72
    x[69]     c3        447
    x[69]     c4        867
    x[69]     c5        728
    x[69]     c6        75
    x[69]     c7        23
    x[69]     c1        630
    x[69]     c2        678
    x[69]     OBJ       168
    x[70]     c3        389
    x[70]     c4        329
    x[70]     c5        308
    x[70]     c6        369
    x[70]     c7        338
    x[70]     c1        997
    x[70]     c2        787
    x[70]     OBJ       288
    x[71]     c3        948
    x[71]     c4        724
    x[71]     c5        213
    x[71]     c6        170
    x[71]     c7        427
    x[71]     c1        462
    x[71]     c2        424
    x[71]     OBJ       -550
    x[72]     c3        139
    x[72]     c4        205
    x[72]     c5        581
    x[72]     c6        840
    x[72]     c7        712
    x[72]     c1        750
    x[72]     c2        721
    x[72]     OBJ       206
    x[73]     c3        173
    x[73]     c4        418
    x[73]     c5        353
    x[73]     c6        258
    x[73]     c7        95
    x[73]     c1        841
    x[73]     c2        623
    x[73]     OBJ       300
    x[74]     c3        113
    x[74]     c4        236
    x[74]     c5        342
    x[74]     c6        480
    x[74]     c7        364
    x[74]     c1        795
    x[74]     c2        833
    x[74]     OBJ       113
    x[75]     c3        901
    x[75]     c4        266
    x[75]     c5        150
    x[75]     c6        689
    x[75]     c7        942
    x[75]     c1        2
    x[75]     c2        986
    x[75]     OBJ       -503
    x[76]     c3        97
    x[76]     c4        852
    x[76]     c5        666
    x[76]     c6        90
    x[76]     c7        932
    x[76]     c1        522
    x[76]     c2        141
    x[76]     OBJ       -440
    x[77]     c3        59
    x[77]     c4        396
    x[77]     c5        66
    x[77]     c6        4
    x[77]     c7        913
    x[77]     c1        778
    x[77]     c2        66
    x[77]     OBJ       -201
    x[78]     c3        896
    x[78]     c4        66
    x[78]     c5        303
    x[78]     c6        783
    x[78]     c7        210
    x[78]     c1        42
    x[78]     c2        983
    x[78]     OBJ       -433
    x[79]     c3        496
    x[79]     c4        346
    x[79]     c5        212
    x[79]     c6        481
    x[79]     c7        522
    x[79]     c1        714
    x[79]     c2        449
    x[79]     OBJ       -225
    x[80]     c3        339
    x[80]     c4        854
    x[80]     c5        25
    x[80]     c6        763
    x[80]     c7        341
    x[80]     c1        645
    x[80]     c2        654
    x[80]     OBJ       172
    x[81]     c3        229
    x[81]     c4        503
    x[81]     c5        638
    x[81]     c6        317
    x[81]     c7        201
    x[81]     c1        855
    x[81]     c2        458
    x[81]     OBJ       1
    x[82]     c3        254
    x[82]     c4        521
    x[82]     c5        440
    x[82]     c6        833
    x[82]     c7        148
    x[82]     c1        396
    x[82]     c2        675
    x[82]     OBJ       -252
    x[83]     c3        173
    x[83]     c4        607
    x[83]     c5        778
    x[83]     c6        526
    x[83]     c7        544
    x[83]     c1        768
    x[83]     c2        515
    x[83]     OBJ       75
    x[84]     c3        397
    x[84]     c4        7
    x[84]     c5        178
    x[84]     c6        345
    x[84]     c7        27
    x[84]     c1        392
    x[84]     c2        718
    x[84]     OBJ       41
    x[85]     c3        945
    x[85]     c4        83
    x[85]     c5        460
    x[85]     c6        590
    x[85]     c7        428
    x[85]     c1        141
    x[85]     c2        486
    x[85]     OBJ       -424
    x[86]     c3        573
    x[86]     c4        342
    x[86]     c5        80
    x[86]     c6        73
    x[86]     c7        615
    x[86]     c1        544
    x[86]     c2        881
    x[86]     OBJ       53
    x[87]     c3        999
    x[87]     c4        143
    x[87]     c5        470
    x[87]     c6        286
    x[87]     c7        184
    x[87]     c1        847
    x[87]     c2        726
    x[87]     OBJ       30
    x[88]     c3        754
    x[88]     c4        651
    x[88]     c5        400
    x[88]     c6        553
    x[88]     c7        618
    x[88]     c1        263
    x[88]     c2        386
    x[88]     OBJ       -459
    x[89]     c3        828
    x[89]     c4        990
    x[89]     c5        645
    x[89]     c6        306
    x[89]     c7        764
    x[89]     c1        325
    x[89]     c2        796
    x[89]     OBJ       -609
    x[90]     c3        145
    x[90]     c4        975
    x[90]     c5        937
    x[90]     c6        219
    x[90]     c7        618
    x[90]     c1        227
    x[90]     c2        229
    x[90]     OBJ       -538
    x[91]     c3        403
    x[91]     c4        51
    x[91]     c5        192
    x[91]     c6        128
    x[91]     c7        119
    x[91]     c1        765
    x[91]     c2        398
    x[91]     OBJ       -82
    x[92]     c3        804
    x[92]     c4        67
    x[92]     c5        6
    x[92]     c6        119
    x[92]     c7        409
    x[92]     c1        128
    x[92]     c2        335
    x[92]     OBJ       -306
    x[93]     c3        802
    x[93]     c4        29
    x[93]     c5        801
    x[93]     c6        722
    x[93]     c7        511
    x[93]     c1        10
    x[93]     c2        624
    x[93]     OBJ       -560
    x[94]     c3        38
    x[94]     c4        732
    x[94]     c5        692
    x[94]     c6        115
    x[94]     c7        995
    x[94]     c1        973
    x[94]     c2        283
    x[94]     OBJ       -91
    x[95]     c3        324
    x[95]     c4        485
    x[95]     c5        58
    x[95]     c6        726
    x[95]     c7        607
    x[95]     c1        162
    x[95]     c2        182
    x[95]     OBJ       -673
    x[96]     c3        906
    x[96]     c4        298
    x[96]     c5        14
    x[96]     c6        438
    x[96]     c7        377
    x[96]     c1        743
    x[96]     c2        589
    x[96]     OBJ       -184
    x[97]     c3        344
    x[97]     c4        889
    x[97]     c5        56
    x[97]     c6        457
    x[97]     c7        886
    x[97]     c1        208
    x[97]     c2        153
    x[97]     OBJ       -571
    x[98]     c3        98
    x[98]     c4        948
    x[98]     c5        933
    x[98]     c6        903
    x[98]     c7        292
    x[98]     c1        223
    x[98]     c2        945
    x[98]     OBJ       -194
    x[99]     c3        365
    x[99]     c4        871
    x[99]     c5        438
    x[99]     c6        353
    x[99]     c7        555
    x[99]     c1        981
    x[99]     c2        272
    x[99]     OBJ       -49
    x[100]    c3        100
    x[100]    c4        206
    x[100]    c5        928
    x[100]    c6        463
    x[100]    c7        262
    x[100]    c1        143
    x[100]    c2        849
    x[100]    OBJ       -299
RHS
    rhs       c3        33727
    rhs       c4        36339
    rhs       c5        36746
    rhs       c6        35213
    rhs       c7        35615
    rhs       c1        39485
    rhs       c2        40164
RANGES
BOUNDS
 LO bounds    ss[1]     0
 PL bounds    ss[1]
 LO bounds    ss[2]     0
 PL bounds    ss[2]
 MI bounds    s[1]
 UP bounds    s[1]      0
 MI bounds    s[2]
 UP bounds    s[2]      0
 MI bounds    s[3]
 UP bounds    s[3]      0
 MI bounds    s[4]
 UP bounds    s[4]      0
 MI bounds    s[5]
 UP bounds    s[5]      0
 BV bounds    x[1]
 BV bounds    x[2]
 BV bounds    x[3]
 BV bounds    x[4]
 BV bounds    x[5]
 BV bounds    x[6]
 BV bounds    x[7]
 BV bounds    x[8]
 BV bounds    x[9]
 BV bounds    x[10]
 BV bounds    x[11]
 BV bounds    x[12]
 BV bounds    x[13]
 BV bounds    x[14]
 BV bounds    x[15]
 BV bounds    x[16]
 BV bounds    x[17]
 BV bounds    x[18]
 BV bounds    x[19]
 BV bounds    x[20]
 BV bounds    x[21]
 BV bounds    x[22]
 BV bounds    x[23]
 BV bounds    x[24]
 BV bounds    x[25]
 BV bounds    x[26]
 BV bounds    x[27]
 BV bounds    x[28]
 BV bounds    x[29]
 BV bounds    x[30]
 BV bounds    x[31]
 BV bounds    x[32]
 BV bounds    x[33]
 BV bounds    x[34]
 BV bounds    x[35]
 BV bounds    x[36]
 BV bounds    x[37]
 BV bounds    x[38]
 BV bounds    x[39]
 BV bounds    x[40]
 BV bounds    x[41]
 BV bounds    x[42]
 BV bounds    x[43]
 BV bounds    x[44]
 BV bounds    x[45]
 BV bounds    x[46]
 BV bounds    x[47]
 BV bounds    x[48]
 BV bounds    x[49]
 BV bounds    x[50]
 BV bounds    x[51]
 BV bounds    x[52]
 BV bounds    x[53]
 BV bounds    x[54]
 BV bounds    x[55]
 BV bounds    x[56]
 BV bounds    x[57]
 BV bounds    x[58]
 BV bounds    x[59]
 BV bounds    x[60]
 BV bounds    x[61]
 BV bounds    x[62]
 BV bounds    x[63]
 BV bounds    x[64]
 BV bounds    x[65]
 BV bounds    x[66]
 BV bounds    x[67]
 BV bounds    x[68]
 BV bounds    x[69]
 BV bounds    x[70]
 BV bounds    x[71]
 BV bounds    x[72]
 BV bounds    x[73]
 BV bounds    x[74]
 BV bounds    x[75]
 BV bounds    x[76]
 BV bounds    x[77]
 BV bounds    x[78]
 BV bounds    x[79]
 BV bounds    x[80]
 BV bounds    x[81]
 BV bounds    x[82]
 BV bounds    x[83]
 BV bounds    x[84]
 BV bounds    x[85]
 BV bounds    x[86]
 BV bounds    x[87]
 BV bounds    x[88]
 BV bounds    x[89]
 BV bounds    x[90]
 BV bounds    x[91]
 BV bounds    x[92]
 BV bounds    x[93]
 BV bounds    x[94]
 BV bounds    x[95]
 BV bounds    x[96]
 BV bounds    x[97]
 BV bounds    x[98]
 BV bounds    x[99]
 BV bounds    x[100]
ENDATA
